--- Job transport02.gms Start 10/27/20 14:09:28 30.1.0 re01a340 WEX-WEI x86 64bit/MS Windows
--- GAMS Parameters defined
    Input M:\PROGRAMY\gams30.1\apifiles\Python\Diplomka\SRC\gams\transport\transport02.gms
    PageSize 0
    ScrDir M:\PROGRAMY\gams30.1\apifiles\Python\Diplomka\SRC\gams\transport\225a\
    SysDir M:\PROGRAMY\gams30.1\
    LogOption 3
    ErrMsg 1
    ErrorLog 99
    IDE 1
    LstTitleLeftAligned 1
GAMS 30.1.0   Copyright (C) 1987-2020 GAMS Development. All rights reserved
Licensee: Medium MUD - 10 User License                   S170901:0725AO-GEN
          Brno University of Technology, Dept. of Process and EnviroDC13506
--- Starting compilation
--- transport02.gms(29) 3 Mb
--- GDXin=C:\Users\marak\AppData\Local\Temp\tmp47w3v46f\_gams_py_gdb0.gdx
--- transport02.gms(58) 3 Mb
--- Starting execution: elapsed 0:00:00.011
--- transport02.gms(35) 4 Mb
--- Generating LP model transport
--- transport02.gms(56) 4 Mb
---   6 rows  7 columns  19 non-zeroes
--- Executing CPLEX: elapsed 0:00:00.019
IBM ILOG CPLEX   30.1.0 re01a340 Released Jan 10, 2020 WEI x86 64bit/MS Window
--- GAMS/Cplex licensed for continuous and discrete problems.
Cplex 12.10.0.0
Reading data...
Starting Cplex...
Space for names approximately 0.00 Mb
Use option 'names no' to turn use of names off
Version identifier: 12.10.0.0 | 2019-11-26 | 843d4de2ae
CPXPARAM_Advance                                 0
CPXPARAM_Simplex_Display                         2
CPXPARAM_Threads                                 1
CPXPARAM_Parallel                                1
CPXPARAM_Simplex_Limits_Iterations               2000000000
CPXPARAM_TimeLimit                               1000
CPXPARAM_Tune_TimeLimit                          200
Tried aggregator 1 time.
LP Presolve eliminated 1 rows and 1 columns.
Reduced LP has 5 rows, 6 columns, and 12 nonzeros.
Presolve time = 0.00 sec. (0.00 ticks)
Iteration      Dual Objective            In Variable           Out Variable
     1               0.487500    x(seattle.new-york) demand(new-york) slack
     2               0.793500     x(seattle.chicago)  demand(chicago) slack
     3               1.024500    x(san-diego.topeka)   demand(topeka) slack
     4               1.024500  x(san-diego.new-york)  supply(seattle) slack
LP status(1): optimal
Cplex Time: 0.00sec (det. 0.01 ticks)
Optimal solution found.
Objective :           1.024500
--- Restarting execution
--- transport02.gms(56) 2 Mb
--- Reading solution for model transport
--- Executing after solve: elapsed 0:00:00.417
--- transport02.gms(58) 3 Mb
*** Status: Normal completion
--- Job transport02.gms Stop 10/27/20 14:09:28 elapsed 0:00:00.418

